100
1000
200
200
198
198
198
197
197
196
196
196
196
195
195
195
194
193
192
192
191
191
190
189
188
188
188
188
188
187
186
186
185
185
184
183
183
183
182
182
181
181
181
179
179
178
178
178
177
177
177
175
173
173
173
173
172
172
172
171
171
170
170
169
169
169
169
168
167
166
166
165
165
165
163
163
163
161
161
161
161
158
158
157
157
155
154
154
154
153
153
152
152
152
151
151
150
150
150
150
150
150
